(set-info :smt-lib-version 2.6)
(set-logic LIA)
(set-info
  :source |
 Generated by PSyCO 0.1
 More info in N. P. Lopes and J. Monteiro. Weakest Precondition Synthesis for
 Compiler Optimizations, VMCAI'14.
|)
(set-info :category "industrial")
(set-info :status sat)
(declare-fun R_E1_V4 () Bool)
(declare-fun W_S1_V4 () Bool)
(declare-fun R_E1_V5 () Bool)
(declare-fun W_S1_V5 () Bool)
(declare-fun W_S2_V5 () Bool)
(declare-fun W_S2_V2 () Bool)
(declare-fun W_S2_V3 () Bool)
(declare-fun W_S2_V1 () Bool)
(declare-fun R_S2_V4 () Bool)
(declare-fun R_S2_V5 () Bool)
(declare-fun R_S2_V2 () Bool)
(declare-fun R_S2_V3 () Bool)
(declare-fun R_S2_V1 () Bool)
(declare-fun R_S1_V1 () Bool)
(declare-fun R_S1_V4 () Bool)
(declare-fun R_S1_V5 () Bool)
(declare-fun R_S1_V2 () Bool)
(declare-fun R_S1_V3 () Bool)
(declare-fun R_E1_V2 () Bool)
(declare-fun DISJ_W_S2_R_E1 () Bool)
(declare-fun DISJ_W_S2_R_S2 () Bool)
(declare-fun DISJ_W_S2_R_S1 () Bool)
(declare-fun DISJ_W_S1_W_S2 () Bool)
(declare-fun R_E1_V3 () Bool)
(declare-fun DISJ_W_S1_R_S2 () Bool)
(declare-fun DISJ_W_S1_R_S1 () Bool)
(declare-fun W_S2_V4 () Bool)
(declare-fun W_S1_V3 () Bool)
(declare-fun W_S1_V2 () Bool)
(declare-fun W_S1_V1 () Bool)
(declare-fun R_E1_V1 () Bool)
(declare-fun DISJ_W_S1_R_E1 () Bool)
(assert
 (let
 (($x3005
   (forall
    ((V3_0 Int) (V2_0 Int) 
     (V5_0 Int) (V4_0 Int) 
     (MW_S1_V1 Bool) (MW_S1_V3 Bool) 
     (MW_S1_V2 Bool) (MW_S1_V5 Bool) 
     (MW_S1_V4 Bool) (MW_S2_V1 Bool) 
     (MW_S2_V3 Bool) (MW_S2_V2 Bool) 
     (MW_S2_V5 Bool) (MW_S2_V4 Bool) 
     (S1_V1_!1516 Int) (S1_V1_!1521 Int) 
     (S1_V1_!1533 Int) (S2_V5_!1530 Int) 
     (S2_V5_!1541 Int) (S1_V3_!1517 Int) 
     (S1_V3_!1522 Int) (S1_V3_!1534 Int) 
     (S1_V2_!1518 Int) (S1_V2_!1523 Int) 
     (S1_V2_!1535 Int) (E1_!1515 Int) 
     (E1_!1526 Int) (E1_!1532 Int) 
     (S2_V4_!1531 Int) (S2_V4_!1542 Int) 
     (S1_V5_!1519 Int) (S1_V5_!1524 Int) 
     (S1_V5_!1536 Int) (S2_V1_!1527 Int) 
     (S2_V1_!1538 Int) (S1_V4_!1520 Int) 
     (S1_V4_!1525 Int) (S1_V4_!1537 Int) 
     (S2_V2_!1529 Int) (S2_V2_!1540 Int) 
     (S2_V3_!1528 Int) (S2_V3_!1539 Int))
    (let
    (($x2498
      (= (ite MW_S2_V4 S2_V4_!1531 (ite MW_S1_V4 S1_V4_!1525 V4_0))
      (ite MW_S2_V4 S2_V4_!1542 (ite MW_S1_V4 S1_V4_!1537 V4_0)))))
    (let
    (($x3444
      (= (ite MW_S2_V5 S2_V5_!1530 (ite MW_S1_V5 S1_V5_!1524 V5_0))
      (ite MW_S2_V5 S2_V5_!1541 (ite MW_S1_V5 S1_V5_!1536 V5_0)))))
    (let
    (($x2812
      (= (ite MW_S2_V2 S2_V2_!1529 (ite MW_S1_V2 S1_V2_!1523 V2_0))
      (ite MW_S2_V2 S2_V2_!1540 (ite MW_S1_V2 S1_V2_!1535 V2_0)))))
    (let
    (($x2850
      (= (ite MW_S2_V3 S2_V3_!1528 (ite MW_S1_V3 S1_V3_!1522 V3_0))
      (ite MW_S2_V3 S2_V3_!1539 (ite MW_S1_V3 S1_V3_!1534 V3_0)))))
    (let
    (($x3456
      (and
      (= (ite MW_S2_V1 S2_V1_!1527 E1_!1526)
      (ite MW_S2_V1 S2_V1_!1538 (ite MW_S1_V1 S1_V1_!1533 E1_!1532))) $x2850
      $x2812 $x3444 $x2498)))
    (let
    (($x2615
      (>= (ite MW_S2_V1 S2_V1_!1538 (ite MW_S1_V1 S1_V1_!1533 E1_!1532))
      (+ (- 1) (ite MW_S2_V2 S2_V2_!1540 (ite MW_S1_V2 S1_V2_!1535 V2_0))))))
    (let
    (($x2491
      (>= (ite MW_S2_V1 S2_V1_!1527 E1_!1526)
      (+ (- 1) (ite MW_S2_V2 S2_V2_!1529 (ite MW_S1_V2 S1_V2_!1523 V2_0))))))
    (let
    (($x2711
      (>=
      (ite MW_S1_V1 S1_V1_!1521 (+ 1 (ite MW_S1_V1 S1_V1_!1516 E1_!1515)))
      (+ (- 1) (ite MW_S1_V2 S1_V2_!1523 V2_0)))))
    (let
    (($x2871
      (and (not (<= V2_0 E1_!1515))
      (not
      (<= (ite MW_S1_V2 S1_V2_!1518 V2_0)
      (+ 1 (ite MW_S1_V1 S1_V1_!1516 E1_!1515)))) $x2711
      (not (<= (ite MW_S1_V2 S1_V2_!1523 V2_0) E1_!1526)) $x2491
      (not (<= V2_0 E1_!1532)) $x2615)))
    (let
    (($x3043
      (and
      (or (not R_S2_V1) (= E1_!1526 (ite MW_S1_V1 S1_V1_!1533 E1_!1532)))
      (or (not R_S2_V3)
      (= (ite MW_S1_V3 S1_V3_!1522 V3_0) (ite MW_S1_V3 S1_V3_!1534 V3_0)))
      (or (not R_S2_V2)
      (= (ite MW_S1_V2 S1_V2_!1523 V2_0) (ite MW_S1_V2 S1_V2_!1535 V2_0)))
      (or (not R_S2_V5)
      (= (ite MW_S1_V5 S1_V5_!1524 V5_0) (ite MW_S1_V5 S1_V5_!1536 V5_0)))
      (or (not R_S2_V4)
      (= (ite MW_S1_V4 S1_V4_!1525 V4_0) (ite MW_S1_V4 S1_V4_!1537 V4_0))))))
    (let (($x3464 (not $x3043)))
    (let
    (($x2533
      (and
      (or (not R_S1_V1)
      (= (ite MW_S1_V1 S1_V1_!1516 E1_!1515) (+ (- 1) E1_!1532)))
      (or (not R_S1_V3) (= (ite MW_S1_V3 S1_V3_!1517 V3_0) V3_0))
      (or (not R_S1_V2) (= (ite MW_S1_V2 S1_V2_!1518 V2_0) V2_0))
      (or (not R_S1_V5) (= (ite MW_S1_V5 S1_V5_!1519 V5_0) V5_0))
      (or (not R_S1_V4) (= (ite MW_S1_V4 S1_V4_!1520 V4_0) V4_0)))))
    (let
    (($x2741
      (and
      (or (not R_S1_V1)
      (= (ite MW_S1_V1 S1_V1_!1516 E1_!1515) (+ (- 1) E1_!1515)))
      (or (not R_S1_V3) (= (ite MW_S1_V3 S1_V3_!1517 V3_0) V3_0))
      (or (not R_S1_V2) (= (ite MW_S1_V2 S1_V2_!1518 V2_0) V2_0))
      (or (not R_S1_V5) (= (ite MW_S1_V5 S1_V5_!1519 V5_0) V5_0))
      (or (not R_S1_V4) (= (ite MW_S1_V4 S1_V4_!1520 V4_0) V4_0)))))
    (let
    (($x2689
      (and
      (or (not R_S1_V1)
      (= E1_!1532 (+ 1 (ite MW_S1_V1 S1_V1_!1516 E1_!1515))))
      (or (not R_S1_V3) (= V3_0 (ite MW_S1_V3 S1_V3_!1517 V3_0)))
      (or (not R_S1_V2) (= V2_0 (ite MW_S1_V2 S1_V2_!1518 V2_0)))
      (or (not R_S1_V5) (= V5_0 (ite MW_S1_V5 S1_V5_!1519 V5_0)))
      (or (not R_S1_V4) (= V4_0 (ite MW_S1_V4 S1_V4_!1520 V4_0))))))
    (let (($x3334 (not $x2689)))
    (let
    (($x2835
      (and
      (or (not R_S1_V1)
      (= E1_!1515 (+ 1 (ite MW_S1_V1 S1_V1_!1516 E1_!1515))))
      (or (not R_S1_V3) (= V3_0 (ite MW_S1_V3 S1_V3_!1517 V3_0)))
      (or (not R_S1_V2) (= V2_0 (ite MW_S1_V2 S1_V2_!1518 V2_0)))
      (or (not R_S1_V5) (= V5_0 (ite MW_S1_V5 S1_V5_!1519 V5_0)))
      (or (not R_S1_V4) (= V4_0 (ite MW_S1_V4 S1_V4_!1520 V4_0))))))
    (let (($x3054 (not $x2835)))
    (let
    (($x2966
      (and
      (or (not R_S2_V1) (= (ite MW_S1_V1 S1_V1_!1533 E1_!1532) E1_!1526))
      (or (not R_S2_V3)
      (= (ite MW_S1_V3 S1_V3_!1534 V3_0) (ite MW_S1_V3 S1_V3_!1522 V3_0)))
      (or (not R_S2_V2)
      (= (ite MW_S1_V2 S1_V2_!1535 V2_0) (ite MW_S1_V2 S1_V2_!1523 V2_0)))
      (or (not R_S2_V5)
      (= (ite MW_S1_V5 S1_V5_!1536 V5_0) (ite MW_S1_V5 S1_V5_!1524 V5_0)))
      (or (not R_S2_V4)
      (= (ite MW_S1_V4 S1_V4_!1537 V4_0) (ite MW_S1_V4 S1_V4_!1525 V4_0))))))
    (let
    (($x2946
      (and (or (not R_E1_V2) (= (ite MW_S1_V2 S1_V2_!1523 V2_0) V2_0))
      (or (not R_E1_V5) (= (ite MW_S1_V5 S1_V5_!1524 V5_0) V5_0))
      (or (not R_E1_V4) (= (ite MW_S1_V4 S1_V4_!1525 V4_0) V4_0)))))
    (let
    (($x3060
      (and (or $x3054 (= S1_V1_!1516 S1_V1_!1521))
      (or (not (or (not R_S1_V1) (= E1_!1515 E1_!1532)))
      (= S1_V1_!1516 S1_V1_!1533)) 
      (or $x3334 (= S1_V1_!1533 S1_V1_!1521))
      (or $x3464 (= S2_V5_!1530 S2_V5_!1541))
      (or $x3054 (= S1_V3_!1517 S1_V3_!1522))
      (or (not (or (not R_S1_V1) (= E1_!1515 E1_!1532)))
      (= S1_V3_!1517 S1_V3_!1534)) 
      (or $x3334 (= S1_V3_!1534 S1_V3_!1522))
      (or $x3054 (= S1_V2_!1518 S1_V2_!1523))
      (or (not (or (not R_S1_V1) (= E1_!1532 E1_!1515)))
      (= S1_V2_!1535 S1_V2_!1518)) 
      (or $x3334 (= S1_V2_!1535 S1_V2_!1523))
      (or (not $x2946) (= E1_!1526 E1_!1515))
      (or (not $x2946) (= E1_!1526 E1_!1532)) 
      (= E1_!1532 E1_!1515) 
      (or (not $x2966) (= S2_V4_!1542 S2_V4_!1531))
      (or $x3054 (= S1_V5_!1519 S1_V5_!1524))
      (or (not (or (not R_S1_V1) (= E1_!1532 E1_!1515)))
      (= S1_V5_!1536 S1_V5_!1519)) 
      (or $x3334 (= S1_V5_!1536 S1_V5_!1524))
      (or $x3464 (= S2_V1_!1527 S2_V1_!1538))
      (or (not $x2741) (= S1_V4_!1525 S1_V4_!1520))
      (or (not $x2533) (= S1_V4_!1525 S1_V4_!1537))
      (or (not (or (not R_S1_V1) (= E1_!1532 E1_!1515)))
      (= S1_V4_!1537 S1_V4_!1520)) 
      (or $x3464 (= S2_V2_!1529 S2_V2_!1540))
      (or $x3464 (= S2_V3_!1528 S2_V3_!1539)) 
      (not MW_S1_V1) (not MW_S1_V2) 
      (or (not MW_S1_V5) W_S1_V5) 
      (or (not MW_S1_V4) W_S1_V4) 
      (or (not MW_S2_V1) W_S2_V1) 
      (or (not MW_S2_V3) W_S2_V3) 
      (or (not MW_S2_V2) W_S2_V2) 
      (or (not MW_S2_V5) W_S2_V5)))) 
    (or (not $x3060) (not $x2871) $x3456))))))))))))))))))))))))
 (let
 (($x2607 (not (or (and W_S2_V2 R_E1_V2) (and W_S2_V5 R_E1_V5) R_E1_V4))))
 (let
 (($x113
   (or (and W_S2_V1 R_S2_V1) 
   (and W_S2_V3 R_S2_V3) (and W_S2_V2 R_S2_V2) 
   (and W_S2_V5 R_S2_V5) R_S2_V4)))
 (let (($x115 (= DISJ_W_S2_R_S2 (not $x113))))
 (let
 (($x110
   (or (and W_S2_V1 R_S1_V1) 
   (and W_S2_V3 R_S1_V3) (and W_S2_V2 R_S1_V2) 
   (and W_S2_V5 R_S1_V5) R_S1_V4)))
 (let (($x112 (= DISJ_W_S2_R_S1 (not $x110))))
 (let
 (($x2790
   (= DISJ_W_S1_W_S2 (not (or W_S2_V3 (and W_S1_V5 W_S2_V5) W_S1_V4)))))
 (let (($x155 (not R_E1_V3)))
 (let
 (($x2945 (not (or R_S2_V3 (and W_S1_V5 R_S2_V5) (and W_S1_V4 R_S2_V4)))))
 (let
 (($x2678 (not (or R_S1_V3 (and W_S1_V5 R_S1_V5) (and W_S1_V4 R_S1_V4)))))
 (let (($x2350 (not W_S1_V2)))
 (let (($x2301 (not W_S1_V1)))
 (let (($x153 (not R_E1_V1)))
 (and DISJ_W_S1_R_E1 $x153 $x2301 $x2350 W_S1_V3 W_S2_V4
 (= DISJ_W_S1_R_S1 $x2678) 
 (= DISJ_W_S1_R_S2 $x2945) $x155 $x2790 $x112 $x115 
 (= DISJ_W_S2_R_E1 $x2607) $x3005 
 (not (and W_S1_V5 R_E1_V5)) 
 (not (and W_S1_V4 R_E1_V4)))))))))))))))))
(check-sat)
(exit)

